p cnf 204 1048
97 99 106 116 0
103 119 132 0
81 98 109 127 0
79 84 105 0
73 85 90 0
69 101 113 122 0
80 96 135 0
88 120 128 138 0
76 92 165 0
77 193 0
118 125 131 136 0
74 107 124 0
95 104 199 0
82 182 0
70 72 112 0
63 64 66 67 0
59 61 62 129 0
58 75 203 0
141 142 143 0
145 147 150 151 0
115 117 152 0
87 137 153 155 0
133 156 0
158 159 0
68 160 0
139 161 0
93 163 164 0
166 167 170 0
100 148 172 174 0
176 177 0
111 178 0
94 180 181 0
71 91 123 183 0
65 102 114 184 0
121 140 0
185 186 0
168 190 191 192 0
144 146 196 197 198 0
-92 -138 0
-77 -138 0
-138 -169 0
-77 -92 0
-92 -169 0
-77 -169 0
-134 -188 0
-134 -166 0
-134 -194 0
-166 -188 0
-188 -194 0
-166 -194 0
-126 -180 0
-126 -200 0
-126 -183 0
-180 -200 0
-180 -183 0
-183 -200 0
-202 -204 0
-190 -202 0
-196 -202 0
-190 -204 0
-196 -204 0
-190 -196 0
-134 -138 0
-126 -138 0
-138 -202 0
-126 -134 0
-134 -202 0
-126 -202 0
-92 -188 0
-92 -180 0
-92 -204 0
-180 -188 0
-188 -204 0
-180 -204 0
-77 -166 0
-77 -200 0
-77 -190 0
-166 -200 0
-166 -190 0
-190 -200 0
-169 -194 0
-169 -183 0
-169 -196 0
-183 -194 0
-194 -196 0
-183 -196 0
-57 -145 0
-56 -145 0
-56 -57 0
-55 -148 0
-91 -148 0
-55 -91 0
-102 -191 0
-102 -197 0
-191 -197 0
-145 -148 0
-102 -145 0
-102 -148 0
-55 -57 0
-57 -191 0
-55 -191 0
-56 -91 0
-56 -197 0
-91 -197 0
-54 -99 0
-53 -54 0
-54 -103 0
-54 -81 0
-53 -99 0
-99 -103 0
-81 -99 0
-53 -103 0
-53 -81 0
-81 -103 0
-52 -122 0
-80 -122 0
-120 -122 0
-51 -122 0
-52 -80 0
-52 -120 0
-51 -52 0
-80 -120 0
-51 -80 0
-51 -120 0
-50 -171 0
-131 -171 0
-124 -171 0
-110 -171 0
-50 -131 0
-50 -124 0
-50 -110 0
-124 -131 0
-110 -131 0
-110 -124 0
-62 -67 0
-49 -67 0
-48 -67 0
-67 -75 0
-49 -62 0
-48 -62 0
-62 -75 0
-48 -49 0
-49 -75 0
-48 -75 0
-117 -147 0
-137 -147 0
-133 -147 0
-47 -147 0
-117 -137 0
-117 -133 0
-47 -117 0
-133 -137 0
-47 -137 0
-47 -133 0
-54 -122 0
-54 -171 0
-54 -67 0
-54 -147 0
-122 -171 0
-67 -122 0
-122 -147 0
-67 -171 0
-147 -171 0
-67 -147 0
-52 -99 0
-50 -99 0
-62 -99 0
-99 -117 0
-50 -52 0
-52 -62 0
-52 -117 0
-50 -62 0
-50 -117 0
-62 -117 0
-53 -80 0
-53 -131 0
-49 -53 0
-53 -137 0
-80 -131 0
-49 -80 0
-80 -137 0
-49 -131 0
-131 -137 0
-49 -137 0
-103 -120 0
-103 -124 0
-48 -103 0
-103 -133 0
-120 -124 0
-48 -120 0
-120 -133 0
-48 -124 0
-124 -133 0
-48 -133 0
-51 -81 0
-81 -110 0
-75 -81 0
-47 -81 0
-51 -110 0
-51 -75 0
-47 -51 0
-75 -110 0
-47 -110 0
-47 -75 0
-69 -96 0
-69 -162 0
-96 -162 0
-46 -136 0
-45 -46 0
-45 -136 0
-130 -172 0
-111 -172 0
-111 -130 0
-46 -69 0
-69 -172 0
-46 -172 0
-96 -136 0
-96 -130 0
-130 -136 0
-45 -162 0
-111 -162 0
-45 -111 0
-116 -149 0
-132 -149 0
-127 -149 0
-149 -157 0
-90 -149 0
-116 -132 0
-116 -127 0
-116 -157 0
-90 -116 0
-127 -132 0
-132 -157 0
-90 -132 0
-127 -157 0
-90 -127 0
-90 -157 0
-44 -101 0
-88 -101 0
-43 -101 0
-76 -101 0
-42 -101 0
-44 -88 0
-43 -44 0
-44 -76 0
-42 -44 0
-43 -88 0
-76 -88 0
-42 -88 0
-43 -76 0
-42 -43 0
-42 -76 0
-173 -175 0
-107 -173 0
-41 -173 0
-95 -173 0
-72 -173 0
-107 -175 0
-41 -175 0
-95 -175 0
-72 -175 0
-41 -107 0
-95 -107 0
-72 -107 0
-41 -95 0
-41 -72 0
-72 -95 0
-61 -66 0
-40 -66 0
-58 -66 0
-39 -66 0
-66 -143 0
-40 -61 0
-58 -61 0
-39 -61 0
-61 -143 0
-40 -58 0
-39 -40 0
-40 -143 0
-39 -58 0
-58 -143 0
-39 -143 0
-37 -68 0
-36 -68 0
-68 -163 0
-35 -68 0
-34 -68 0
-36 -37 0
-37 -163 0
-35 -37 0
-34 -37 0
-36 -163 0
-35 -36 0
-34 -36 0
-35 -163 0
-34 -163 0
-34 -35 0
-33 -114 0
-32 -114 0
-114 -185 0
-31 -114 0
-114 -198 0
-32 -33 0
-33 -185 0
-31 -33 0
-33 -198 0
-32 -185 0
-31 -32 0
-32 -198 0
-31 -185 0
-185 -198 0
-31 -198 0
-101 -149 0
-149 -173 0
-66 -149 0
-68 -149 0
-114 -149 0
-101 -173 0
-66 -101 0
-68 -101 0
-101 -114 0
-66 -173 0
-68 -173 0
-114 -173 0
-66 -68 0
-66 -114 0
-68 -114 0
-44 -116 0
-116 -175 0
-61 -116 0
-37 -116 0
-33 -116 0
-44 -175 0
-44 -61 0
-37 -44 0
-33 -44 0
-61 -175 0
-37 -175 0
-33 -175 0
-37 -61 0
-33 -61 0
-33 -37 0
-88 -132 0
-107 -132 0
-40 -132 0
-36 -132 0
-32 -132 0
-88 -107 0
-40 -88 0
-36 -88 0
-32 -88 0
-40 -107 0
-36 -107 0
-32 -107 0
-36 -40 0
-32 -40 0
-32 -36 0
-43 -127 0
-41 -127 0
-58 -127 0
-127 -163 0
-127 -185 0
-41 -43 0
-43 -58 0
-43 -163 0
-43 -185 0
-41 -58 0
-41 -163 0
-41 -185 0
-58 -163 0
-58 -185 0
-163 -185 0
-76 -157 0
-95 -157 0
-39 -157 0
-35 -157 0
-31 -157 0
-76 -95 0
-39 -76 0
-35 -76 0
-31 -76 0
-39 -95 0
-35 -95 0
-31 -95 0
-35 -39 0
-31 -39 0
-31 -35 0
-42 -90 0
-72 -90 0
-90 -143 0
-34 -90 0
-90 -198 0
-42 -72 0
-42 -143 0
-34 -42 0
-42 -198 0
-72 -143 0
-34 -72 0
-72 -198 0
-34 -143 0
-143 -198 0
-34 -198 0
-30 -106 0
-30 -86 0
-29 -30 0
-30 -79 0
-30 -73 0
-86 -106 0
-29 -106 0
-79 -106 0
-73 -106 0
-29 -86 0
-79 -86 0
-73 -86 0
-29 -79 0
-29 -73 0
-73 -79 0
-27 -28 0
-28 -118 0
-28 -104 0
-28 -82 0
-28 -112 0
-27 -118 0
-27 -104 0
-27 -82 0
-27 -112 0
-104 -118 0
-82 -118 0
-112 -118 0
-82 -104 0
-104 -112 0
-82 -112 0
-64 -129 0
-26 -64 0
-25 -64 0
-24 -64 0
-64 -141 0
-26 -129 0
-25 -129 0
-24 -129 0
-129 -141 0
-25 -26 0
-24 -26 0
-26 -141 0
-24 -25 0
-25 -141 0
-24 -141 0
-115 -150 0
-150 -153 0
-150 -158 0
-23 -150 0
-89 -150 0
-115 -153 0
-115 -158 0
-23 -115 0
-89 -115 0
-153 -158 0
-23 -153 0
-89 -153 0
-23 -158 0
-89 -158 0
-23 -89 0
-174 -176 0
-22 -174 0
-94 -174 0
-21 -174 0
-71 -174 0
-22 -176 0
-94 -176 0
-21 -176 0
-71 -176 0
-22 -94 0
-21 -22 0
-22 -71 0
-21 -94 0
-71 -94 0
-21 -71 0
-60 -65 0
-65 -140 0
-38 -65 0
-65 -168 0
-65 -144 0
-60 -140 0
-38 -60 0
-60 -168 0
-60 -144 0
-38 -140 0
-140 -168 0
-140 -144 0
-38 -168 0
-38 -144 0
-144 -168 0
-28 -30 0
-30 -64 0
-30 -150 0
-30 -174 0
-30 -65 0
-28 -64 0
-28 -150 0
-28 -174 0
-28 -65 0
-64 -150 0
-64 -174 0
-64 -65 0
-150 -174 0
-65 -150 0
-65 -174 0
-27 -106 0
-106 -129 0
-106 -115 0
-106 -176 0
-60 -106 0
-27 -129 0
-27 -115 0
-27 -176 0
-27 -60 0
-115 -129 0
-129 -176 0
-60 -129 0
-115 -176 0
-60 -115 0
-60 -176 0
-86 -118 0
-26 -86 0
-86 -153 0
-22 -86 0
-86 -140 0
-26 -118 0
-118 -153 0
-22 -118 0
-118 -140 0
-26 -153 0
-22 -26 0
-26 -140 0
-22 -153 0
-140 -153 0
-22 -140 0
-29 -104 0
-25 -29 0
-29 -158 0
-29 -94 0
-29 -38 0
-25 -104 0
-104 -158 0
-94 -104 0
-38 -104 0
-25 -158 0
-25 -94 0
-25 -38 0
-94 -158 0
-38 -158 0
-38 -94 0
-79 -82 0
-24 -79 0
-23 -79 0
-21 -79 0
-79 -168 0
-24 -82 0
-23 -82 0
-21 -82 0
-82 -168 0
-23 -24 0
-21 -24 0
-24 -168 0
-21 -23 0
-23 -168 0
-21 -168 0
-73 -112 0
-73 -141 0
-73 -89 0
-71 -73 0
-73 -144 0
-112 -141 0
-89 -112 0
-71 -112 0
-112 -144 0
-89 -141 0
-71 -141 0
-141 -144 0
-71 -89 0
-89 -144 0
-71 -144 0
-109 -154 0
-84 -154 0
-84 -109 0
-20 -87 0
-78 -87 0
-20 -78 0
-93 -139 0
-139 -167 0
-93 -167 0
-87 -154 0
-139 -154 0
-87 -139 0
-20 -109 0
-93 -109 0
-20 -93 0
-78 -84 0
-84 -167 0
-78 -167 0
-19 -97 0
-18 -19 0
-19 -119 0
-19 -98 0
-17 -19 0
-19 -105 0
-19 -85 0
-18 -97 0
-97 -119 0
-97 -98 0
-17 -97 0
-97 -105 0
-85 -97 0
-18 -119 0
-18 -98 0
-17 -18 0
-18 -105 0
-18 -85 0
-98 -119 0
-17 -119 0
-105 -119 0
-85 -119 0
-17 -98 0
-98 -105 0
-85 -98 0
-17 -105 0
-17 -85 0
-85 -105 0
-16 -113 0
-113 -135 0
-113 -128 0
-113 -187 0
-113 -165 0
-113 -193 0
-15 -113 0
-16 -135 0
-16 -128 0
-16 -187 0
-16 -165 0
-16 -193 0
-15 -16 0
-128 -135 0
-135 -187 0
-135 -165 0
-135 -193 0
-15 -135 0
-128 -187 0
-128 -165 0
-128 -193 0
-15 -128 0
-165 -187 0
-187 -193 0
-15 -187 0
-165 -193 0
-15 -165 0
-15 -193 0
-13 -14 0
-14 -125 0
-14 -74 0
-14 -179 0
-14 -199 0
-14 -182 0
-14 -70 0
-13 -125 0
-13 -74 0
-13 -179 0
-13 -199 0
-13 -182 0
-13 -70 0
-74 -125 0
-125 -179 0
-125 -199 0
-125 -182 0
-70 -125 0
-74 -179 0
-74 -199 0
-74 -182 0
-70 -74 0
-179 -199 0
-179 -182 0
-70 -179 0
-182 -199 0
-70 -199 0
-70 -182 0
-59 -63 0
-63 -201 0
-12 -63 0
-63 -203 0
-63 -189 0
-63 -195 0
-63 -142 0
-59 -201 0
-12 -59 0
-59 -203 0
-59 -189 0
-59 -195 0
-59 -142 0
-12 -201 0
-201 -203 0
-189 -201 0
-195 -201 0
-142 -201 0
-12 -203 0
-12 -189 0
-12 -195 0
-12 -142 0
-189 -203 0
-195 -203 0
-142 -203 0
-189 -195 0
-142 -189 0
-142 -195 0
-151 -152 0
-151 -155 0
-151 -156 0
-108 -151 0
-151 -159 0
-83 -151 0
-11 -151 0
-152 -155 0
-152 -156 0
-108 -152 0
-152 -159 0
-83 -152 0
-11 -152 0
-155 -156 0
-108 -155 0
-155 -159 0
-83 -155 0
-11 -155 0
-108 -156 0
-156 -159 0
-83 -156 0
-11 -156 0
-108 -159 0
-83 -108 0
-11 -108 0
-83 -159 0
-11 -159 0
-11 -83 0
-10 -160 0
-160 -161 0
-9 -160 0
-160 -164 0
-8 -160 0
-160 -170 0
-7 -160 0
-10 -161 0
-9 -10 0
-10 -164 0
-8 -10 0
-10 -170 0
-7 -10 0
-9 -161 0
-161 -164 0
-8 -161 0
-161 -170 0
-7 -161 0
-9 -164 0
-8 -9 0
-9 -170 0
-7 -9 0
-8 -164 0
-164 -170 0
-7 -164 0
-8 -170 0
-7 -8 0
-7 -170 0
-100 -177 0
-6 -100 0
-5 -100 0
-100 -178 0
-100 -181 0
-4 -100 0
-100 -123 0
-6 -177 0
-5 -177 0
-177 -178 0
-177 -181 0
-4 -177 0
-123 -177 0
-5 -6 0
-6 -178 0
-6 -181 0
-4 -6 0
-6 -123 0
-5 -178 0
-5 -181 0
-4 -5 0
-5 -123 0
-178 -181 0
-4 -178 0
-123 -178 0
-4 -181 0
-123 -181 0
-4 -123 0
-3 -184 0
-121 -184 0
-2 -184 0
-184 -186 0
-1 -184 0
-184 -192 0
-146 -184 0
-3 -121 0
-2 -3 0
-3 -186 0
-1 -3 0
-3 -192 0
-3 -146 0
-2 -121 0
-121 -186 0
-1 -121 0
-121 -192 0
-121 -146 0
-2 -186 0
-1 -2 0
-2 -192 0
-2 -146 0
-1 -186 0
-186 -192 0
-146 -186 0
-1 -192 0
-1 -146 0
-146 -192 0
-19 -113 0
-14 -19 0
-19 -63 0
-19 -151 0
-19 -160 0
-19 -100 0
-19 -184 0
-14 -113 0
-63 -113 0
-113 -151 0
-113 -160 0
-100 -113 0
-113 -184 0
-14 -63 0
-14 -151 0
-14 -160 0
-14 -100 0
-14 -184 0
-63 -151 0
-63 -160 0
-63 -100 0
-63 -184 0
-151 -160 0
-100 -151 0
-151 -184 0
-100 -160 0
-160 -184 0
-100 -184 0
-16 -97 0
-13 -97 0
-59 -97 0
-97 -152 0
-10 -97 0
-97 -177 0
-3 -97 0
-13 -16 0
-16 -59 0
-16 -152 0
-10 -16 0
-16 -177 0
-3 -16 0
-13 -59 0
-13 -152 0
-10 -13 0
-13 -177 0
-3 -13 0
-59 -152 0
-10 -59 0
-59 -177 0
-3 -59 0
-10 -152 0
-152 -177 0
-3 -152 0
-10 -177 0
-3 -10 0
-3 -177 0
-18 -135 0
-18 -125 0
-18 -201 0
-18 -155 0
-18 -161 0
-6 -18 0
-18 -121 0
-125 -135 0
-135 -201 0
-135 -155 0
-135 -161 0
-6 -135 0
-121 -135 0
-125 -201 0
-125 -155 0
-125 -161 0
-6 -125 0
-121 -125 0
-155 -201 0
-161 -201 0
-6 -201 0
-121 -201 0
-155 -161 0
-6 -155 0
-121 -155 0
-6 -161 0
-121 -161 0
-6 -121 0
-119 -128 0
-74 -119 0
-12 -119 0
-119 -156 0
-9 -119 0
-5 -119 0
-2 -119 0
-74 -128 0
-12 -128 0
-128 -156 0
-9 -128 0
-5 -128 0
-2 -128 0
-12 -74 0
-74 -156 0
-9 -74 0
-5 -74 0
-2 -74 0
-12 -156 0
-9 -12 0
-5 -12 0
-2 -12 0
-9 -156 0
-5 -156 0
-2 -156 0
-5 -9 0
-2 -9 0
-2 -5 0
-98 -187 0
-98 -179 0
-98 -203 0
-98 -108 0
-98 -164 0
-98 -178 0
-98 -186 0
-179 -187 0
-187 -203 0
-108 -187 0
-164 -187 0
-178 -187 0
-186 -187 0
-179 -203 0
-108 -179 0
-164 -179 0
-178 -179 0
-179 -186 0
-108 -203 0
-164 -203 0
-178 -203 0
-186 -203 0
-108 -164 0
-108 -178 0
-108 -186 0
-164 -178 0
-164 -186 0
-178 -186 0
-17 -165 0
-17 -199 0
-17 -189 0
-17 -159 0
-8 -17 0
-17 -181 0
-1 -17 0
-165 -199 0
-165 -189 0
-159 -165 0
-8 -165 0
-165 -181 0
-1 -165 0
-189 -199 0
-159 -199 0
-8 -199 0
-181 -199 0
-1 -199 0
-159 -189 0
-8 -189 0
-181 -189 0
-1 -189 0
-8 -159 0
-159 -181 0
-1 -159 0
-8 -181 0
-1 -8 0
-1 -181 0
-105 -193 0
-105 -182 0
-105 -195 0
-83 -105 0
-105 -170 0
-4 -105 0
-105 -192 0
-182 -193 0
-193 -195 0
-83 -193 0
-170 -193 0
-4 -193 0
-192 -193 0
-182 -195 0
-83 -182 0
-170 -182 0
-4 -182 0
-182 -192 0
-83 -195 0
-170 -195 0
-4 -195 0
-192 -195 0
-83 -170 0
-4 -83 0
-83 -192 0
-4 -170 0
-170 -192 0
-4 -192 0
-15 -85 0
-70 -85 0
-85 -142 0
-11 -85 0
-7 -85 0
-85 -123 0
-85 -146 0
-15 -70 0
-15 -142 0
-11 -15 0
-7 -15 0
-15 -123 0
-15 -146 0
-70 -142 0
-11 -70 0
-7 -70 0
-70 -123 0
-70 -146 0
-11 -142 0
-7 -142 0
-123 -142 0
-142 -146 0
-7 -11 0
-11 -123 0
-11 -146 0
-7 -123 0
-7 -146 0
-123 -146 0
